SYSTEM = AIMD_demo
POTIM = 1.0
NSW = 5
TEBEG = 300
TEEND = 300
IBRION = 0
ISIF = 2
SMASS = 0
